Version identifier: 22.1.1.0 | 2022-11-28 | 9160aff4d
CPXPARAM_Preprocessing_Presolve                  0
CPXPARAM_Read_DataCheck                          1
CPXPARAM_Threads                                 1
CPXPARAM_MIP_Strategy_NodeSelect                 0
CPXPARAM_MIP_Strategy_HeuristicFreq              1
CPXPARAM_TimeLimit                               1800
CPXPARAM_MIP_Tolerances_MIPGap                   9.9999999999999995e-07
Legacy callback                                  LD
Warning: Control callbacks may disable some MIP features.
Lazy constraint(s) or lazy constraint/branch callback is present.
    Disabling dual reductions (CPX_PARAM_REDUCE) in presolve.
    Disabling presolve reductions that prevent crushing forms (CPX_PARAM_PREREFORM).
Clique table members: 100.
MIP emphasis: balance optimality and feasibility.
MIP search method: traditional branch-and-cut.
Parallel mode: none, using 1 thread.
Root relaxation solution time = 0.00 sec. (0.72 ticks)

        Nodes                                         Cuts/
   Node  Left     Objective  IInf  Best Integer    Best Bound    ItCnt     Gap         Variable B NodeID Parent  Depth

      0     0      281.0000    18                    268.0000       42         
      0     2      282.5000    36                    282.5000       42                                 0             0
Elapsed time = 0.24 sec. (84.73 ticks, tree = 0.01 MB, solutions = 0)
     12    14      300.0000    30                    283.2500       97                  x_12_38 D     12     11     12
     19    21      309.3333    16                    283.2500      124                  x_35_28 D     19     18     19
     31    33      324.2500    24                    283.2500      178                  x_16_12 U     31     30     31
     37    39      347.5000    20                    283.2500      217                  x_12_41 U     37     36     37
     72    16      305.2500    28                    283.2500      246                   x_3_28 D     72     71     15
     77    21      311.6667    23                    283.2500      275                  x_46_47 U     77     76     20
     79    23      321.3333    29                    283.2500      287                  x_13_39 U     79     78     22
     81    25      322.3333    38                    283.2500      289                  x_23_30 D     81     80     24
     83    27      324.5000    14                    283.2500      292                   x_7_27 U     83     82     26
     92    36      357.0000     0                    283.2500      345                   x_20_7 D     92     91     35
Elapsed time = 4.58 sec. (3447.86 ticks, tree = 0.15 MB, solutions = 0)
*   102    44      integral     0      409.0000      283.2500      368   30.75%
*   108    40      integral     0      404.0000      283.2500      410   29.89%
*   126    39      integral     0      398.0000      283.2500      471   28.83%
*   139    36      integral     0      392.0000      283.2500      516   27.74%
    140    37      386.0000     0      392.0000      283.2500      533   27.74%         x_49_36 D    140     93     37
*   154    38      integral     0      390.0000      283.2500      582   27.37%
*   160    33      integral     0      387.0000      283.2500      664   26.81%
*   161    32      integral     0      385.0000      283.2500      699   26.43%
    211    35      384.0000    25      385.0000      283.2500     1056   26.43%         x_36_29 D    211    210     39
*   259    30      integral     0      384.0000      283.2500     1300   26.24%
*   276    27      integral     0      382.0000      283.2500     1468   25.85%
    289    29      379.7500    45      382.0000      283.2500     1633   25.85%         x_36_24 D    289    288     29
*   292    26      integral     0      380.0000      283.2500     1644   25.46%
*   295    25      integral     0      371.0000      283.2500     1699   23.65%
*   342    24      integral     0      369.0000      283.2500     2289   23.24%
*   345    23      integral     0      368.0000      283.2500     2305   23.03%
*   371    19      integral     0      364.0000      283.2500     2515   22.18%
    376    24      359.6250    66      364.0000      283.2500     2612   22.18%         x_49_21 D    376    375     24
*   442    24      integral     0      362.0000      283.2500     3007   21.75%
    478    18      356.2500    35      362.0000      283.2500     3306   21.75%         x_47_15 U    478     74     18
*   479    17      integral     0      358.0000      283.2500     3314   20.88%
*   499+   14                          353.0000      283.2500            19.76%
*   560    13      integral     0      347.0000      283.2500     4086   18.37%
*   568     9      integral     0      346.0000      283.2500     4288   18.14%
*   572     6      integral     0      344.0000      283.2500     4357   17.66%
*   573+    5                          340.0000      283.2500            16.69%
*   597+    5                          336.0000      283.2500            15.70%
    600    10      333.5000    34      336.0000      283.2500     4786   15.70%         x_17_22 U    600    599      9
*   677    11      integral     0      335.0000      283.2500     5248   15.45%
*   695     6      integral     0      334.0000      283.2500     5368   15.19%
*   741+    2                          329.0000      286.0000            13.07%
    741     1      329.0000     0      329.0000      286.0000     5691   13.07%         x_12_26 D    741    740      3

User cuts applied:  754

Root node processing (before b&c):
  Real time             =    0.24 sec. (85.12 ticks)
Sequential b&c:
  Real time             =    8.88 sec. (10113.02 ticks)
                          ------------
Total (root+branch&cut) =    9.12 sec. (10198.15 ticks)
